17	4
12	11	11	13	
0	0	0	0	0	3	2	3	4	
5	0	0	0	8	3	6	7	10	
3	0	7	0	0	1	17	
7	4	0	0	0	1	5	
3	0	0	6	0	2	8	17	
100	0	9	0	0	1	13	
150	8	0	0	0	1	12	
175	5	0	0	0	3	9	14	16	
50	7	0	0	0	3	17	17	17	
250	0	3	0	0	3	11	15	17	
150	0	0	5	0	1	17	
125	0	0	10	0	1	17	
5	2	0	0	0	1	14	
8	0	6	0	0	2	17	17	
7	4	0	0	0	1	17	
7	7	0	0	0	1	17	
0	0	0	0	0	0	
